log  thermo_output_temp_150
units       real
dimension   3
boundary    p p p
atom_style  full

variable d string 0.1

pair_style  hybrid/overlay lj/cut/coul/debye $d 0.0 lj/cut 0.1 lj/cut 0.1 table lookup 1000
bond_style  harmonic
dielectric  80.0

read_data test.data

bond_coeff  1 189 3.81

include HPS_Coeffs.txt

special_bonds fene
neighbor  3.5 multi
neigh_modify  every 10 delay 0
timestep      10.0

velocity all create 150 314159

group IDR type 1 3 4 5 6 7 8 9 10 12 13 14 15 16 17 18

####### NPT EQUILIB TO DENSE 
#fix 1 all nvt temp 150.0 150.0 $(100.0*dt) #iso 0.986923 0.986923 1000 mtk yes 
fix fxlange all langevin 150.0 150.0 1000.0 265358
fix fxstandard all nve
fix mydeform all deform 1 x final -30.0 30.0 y final -30.0 30.0 z final -30.0 30.0 units box

thermo        1000
thermo_style  custom step pe ke temp press density lx ly lz
thermo_modify flush yes line yaml 
dump img all custom 1000 traj id mol mass type x y z 

run           10000

unfix mydeform
undump img 

reset_timestep 0

dump img1 all custom 10000 config_150_restart id mol mass type xu yu zu 

run 1000000

#write_dump all custom config_150_restart id mol mass type xu yu zu 

unfix fxlange
unfix fxstandard
#unfix 1 
undump img1

group none empty
change_box none z final -500 500  

read_dump config_150_restart 1000000 x y z box no 


write_data final_config_150.data
