variable t index  50 150 200 250 290 300 310 320 330 
log  thermo_output_temp_$t
processors * * *
units       real
dimension   3
boundary    p p p
atom_style  full

variable d string 0.1

pair_style  hybrid/overlay lj/cut/coul/debye $d 0.0 lj/cut 0.1 lj/cut 0.1 table lookup 1000
bond_style  harmonic
dielectric  80.0

read_data final_config_150.data

bond_coeff  1 189 3.81

include HPS_Coeffs.txt

special_bonds fene
neighbor  3.5 multi
neigh_modify  every 10 delay 0
timestep      10.0

#velocity all create $t 314159

group IDR type 1 3 4 5 6 7 8 9 10 12 13 14 15 16 17 18

##### NVT equilibration 
dump img all custom 1000 NVTequilib_temp_$t id mol mass type x y z 

fix fxlange all langevin $t $t 1000.0 265358
fix fxstandard all nve
fix myrec all recenter INIT INIT INIT units box 

thermo        10000
thermo_style  custom step pe ke temp press density lx ly lz
thermo_modify flush yes line yaml 

run 1000000

##### production stage 

undump img 
reset_timestep 0 
dump img all custom 1000 prod_run_temp_$t id mol mass type x y z
compute gyr IDR gyration
compute mypress all pressure thermo_temp 
compute mymsd IDR msd 
compute mychunk all chunk/atom bin/1d z center 2.5 units box 

variable px equal c_mypress[1]
variable py equal c_mypress[2]
variable pz equal c_mypress[3]
variable  ave equal ave(c_gyr)

fix print_msd IDR ave/time 100 10 1000 c_mymsd[4] file lammps_IDR_protein_msd_Temp_$t.dat
fix print_rg_press all ave/time 100 5 1000 v_ave v_px v_py v_pz file Rg_pressures_Temp_$t.dat
fix print_densityprof all ave/chunk 100 5 1000 mychunk density/mass ave running overwrite file rho_prof_Temp_$t.dat

run 1000000

write_data out_$t.data
clear 
next t 
jump run2.lmp  
